#######################
Slurm job id: 17497813_226
Running on machine: p71
Running cmd: /nfs/shared/static-builds/gurobi1202 SOFTMEMLIMIT=125 MIPFocus=0 Presolve=2 TimeLimit=500 seed=15 /nfs/models/miplib2010/k16x240.mps.bz2
#######################
Set parameter TimeLimit to value 500
Set parameter SoftMemLimit to value 125
Set parameter LogFile to value 1202-MIPFocus0-Presolve2-TimeLimit500-k16x240-5.log
Set parameter Presolve to value 2
Set parameter Seed to value 15
Using license file /opt/gurobi/gurobi.lic

Gurobi Optimizer version 12.0.2 build v12.0.2rc0 (linux64 - "Ubuntu 22.04.4 LTS")
Copyright (c) 2025, Gurobi Optimization, LLC

Read MPS format model from file /nfs/models/miplib2010/k16x240.mps.bz2
Reading time = 0.00 seconds
k16x240: 256 rows, 480 columns, 960 nonzeros

Using Gurobi shared library /nfs/shared/static-builds/gurobi1202

CPU model: Intel(R) Xeon(R) E-2388G CPU @ 3.20GHz, instruction set [SSE2|AVX|AVX2|AVX512]
Thread count: 8 physical cores, 16 logical processors, using up to 16 threads

Non-default parameters:
TimeLimit  500
SoftMemLimit  125
Presolve  2
Seed  15

Optimize a model with 256 rows, 480 columns and 960 nonzeros
Model fingerprint: 0x4e80885f
Variable types: 240 continuous, 240 integer (240 binary)
Coefficient statistics:
  Matrix range     [1e+00, 1e+03]
  Objective range  [1e+00, 1e+03]
  Bounds range     [1e+00, 1e+03]
  RHS range        [4e+00, 4e+02]
Found heuristic solution: objective 16199.000000
Presolve time: 0.00s
Presolved: 256 rows, 480 columns, 960 nonzeros
Variable types: 240 continuous, 240 integer (240 binary)
Root relaxation presolve removed 241 rows and 240 columns
Root relaxation presolved: 15 rows, 240 columns, 450 nonzeros


Root relaxation: objective 2.769838e+03, 16 iterations, 0.00 seconds (0.00 work units)

    Nodes    |    Current Node    |     Objective Bounds      |     Work
 Expl Unexpl |  Obj  Depth IntInf | Incumbent    BestBd   Gap | It/Node Time

     0     0 2769.83800    0   14 16199.0000 2769.83800  82.9%     -    0s
H    0     0                    11359.000000 2769.83800  75.6%     -    0s
H    0     0                    11262.000000 2769.83800  75.4%     -    0s
H    0     0                    11250.000000 2769.83800  75.4%     -    0s
H    0     0                    11027.000000 2769.83800  74.9%     -    0s
H    0     0                    10919.000000 8084.69631  26.0%     -    0s
     0     0 8084.69631    0   26 10919.0000 8084.69631  26.0%     -    0s
H    0     0                    10918.000000 8151.01974  25.3%     -    0s
H    0     0                    10897.000000 8151.01974  25.2%     -    0s
H    0     0                    10828.000000 8151.01974  24.7%     -    0s
     0     0 8532.58268    0   24 10828.0000 8532.58268  21.2%     -    0s
     0     0 8548.03675    0   29 10828.0000 8548.03675  21.1%     -    0s
     0     0 8707.77127    0   36 10828.0000 8707.77127  19.6%     -    0s
H    0     0                    10817.000000 8709.27576  19.5%     -    0s
H    0     0                    10801.000000 8709.27576  19.4%     -    0s
     0     0 8789.97807    0   30 10801.0000 8789.97807  18.6%     -    0s
     0     0 8794.65994    0   30 10801.0000 8794.65994  18.6%     -    0s
     0     0 8855.98714    0   28 10801.0000 8855.98714  18.0%     -    0s
     0     0 8867.57755    0   31 10801.0000 8867.57755  17.9%     -    0s
     0     0 8880.39731    0   35 10801.0000 8880.39731  17.8%     -    0s
     0     0 8883.59842    0   39 10801.0000 8883.59842  17.8%     -    0s
     0     0 9037.02365    0   39 10801.0000 9037.02365  16.3%     -    0s
     0     0 9059.37932    0   35 10801.0000 9059.37932  16.1%     -    0s
     0     0 9070.39438    0   42 10801.0000 9070.39438  16.0%     -    0s
     0     0 9078.06191    0   42 10801.0000 9078.06191  16.0%     -    0s
     0     0 9080.27212    0   42 10801.0000 9080.27212  15.9%     -    0s
     0     0 9103.30251    0   37 10801.0000 9103.30251  15.7%     -    0s
     0     0 9104.28136    0   37 10801.0000 9104.28136  15.7%     -    0s
     0     2 9104.46466    0   37 10801.0000 9104.46466  15.7%     -    0s
H  123   144                    10759.000000 9202.41678  14.5%  28.2    0s
H  144   156                    10674.000000 9202.41678  13.8%  26.7    0s
 31650 11921 10574.6134   35   19 10674.0000 10028.9075  6.04%  25.2    5s
 65032 16968 10420.7394   31   18 10674.0000 10189.8777  4.54%  26.9   10s
 104000 15672     cutoff   31      10674.0000 10340.1204  3.13%  27.5   15s
 139264  4349     cutoff   39      10674.0000 10512.6477  1.51%  27.2   20s

Cutting planes:
  Gomory: 1
  Lift-and-project: 20
  Cover: 71
  Implied bound: 24
  Dual implied bound: 45
  MIR: 165
  Flow cover: 292
  Flow path: 59
  Inf proof: 1
  Zero half: 9
  Network: 55
  Relax-and-lift: 4

Explored 145791 nodes (3893418 simplex iterations) in 20.61 seconds (29.40 work units)
Thread count was 16 (of 16 available processors)

Solution count 10: 10674 10759 10801 ... 11250

Optimal solution found (tolerance 1.00e-04)
Best objective 1.067400000000e+04, best bound 1.067400000000e+04, gap 0.0000%
